************************************************************************
file with basedata            : mm19_.bas
initial value random generator: 149200550
************************************************************************
projects                      :  1
jobs (incl. supersource/sink ):  12
horizon                       :  76
RESOURCES
  - renewable                 :  2   R
  - nonrenewable              :  2   N
  - doubly constrained        :  0   D
************************************************************************
PROJECT INFORMATION:
pronr.  #jobs rel.date duedate tardcost  MPM-Time
    1     10      0       14        6       14
************************************************************************
PRECEDENCE RELATIONS:
jobnr.    #modes  #successors   successors
   0        1          3           1   2   3
   1        3          2           4   7
   2        3          1           8
   3        3          3           5   6   8
   4        3          1          10
   5        3          2           9  10
   6        3          1           9
   7        3          2           8  10
   8        3          1          11
   9        3          1          11
  10        3          1          11
  11        1          0        
************************************************************************
REQUESTS/DURATIONS:
jobnr. mode duration  R 1  R 2  R 3  R 4  E(W 1)  E(W 2)
------------------------------------------------------------------------
  0      1     0       0    0    0    0     0       0
  1      1     2       2    0    4    0     4       8
  2      1     4       6    0    8    0    24      32
  3      1     2       0    8    7    0    16      14
  4      1     1       3    0    6    0     3       6
  5      1     5       0    9    8    0    45      40
  6      1     4      10    0    0    6    40      24
  7      1     1       0    4    4    0     4       4
  8      1     1       6    0    7    0     6       7
  9      1     2       0   10    0    7    20      14
 10      1     7       7    0    0    4    49      28
 11      1     0       0    0    0    0     0       0
************************************************************************
RESOURCEAVAILABILITIES:
  R 1  R 2
   33   73
************************************************************************
RESOURCE LIMITS:
jobnr.  l(R 1)  u(R 1)  l(R 2)  u(R 2)
------------------------------------------------------------------------
  0        0       0       0       0
  1        1       2       2       4
  2        3       6       4       8
  3        4       8       4       7
  4        2       3       3       6
  5        5       9       4       8
  6        5      10       3       6
  7        2       4       2       4
  8        3       6       4       7
  9        5      10       4       7
 10        4       7       2       4
 11        0       0       0       0
************************************************************************
SCENARIOS:
------------------------------------------------------------------------
RESOURCE k = 1
s = 1: (0, 4, 42, 12, 2, 59, 27, 3, 4, 25, 49, 0)
s = 2: (0, 3, 19, 26, 4, 31, 25, 3, 7, 19, 34, 0)
s = 3: (0, 4, 18, 15, 3, 30, 39, 3, 4, 25, 34, 0)
s = 4: (0, 6, 19, 13, 6, 46, 46, 6, 5, 17, 40, 0)
s = 5: (0, 5, 28, 15, 4, 38, 54, 5, 8, 24, 69, 0)
s = 6: (0, 6, 24, 12, 3, 49, 62, 8, 6, 21, 71, 0)
s = 7: (0, 5, 17, 24, 2, 49, 29, 5, 8, 21, 54, 0)
s = 8: (0, 4, 31, 25, 4, 57, 36, 7, 9, 31, 45, 0)
s = 9: (0, 3, 16, 10, 3, 29, 47, 3, 6, 28, 58, 0)
s = 10: (0, 4, 29, 15, 3, 47, 49, 4, 6, 15, 29, 0)
s = 11: (0, 4, 31, 14, 2, 45, 44, 3, 9, 24, 45, 0)
s = 12: (0, 5, 24, 16, 4, 51, 33, 4, 5, 21, 58, 0)
s = 13: (0, 3, 18, 24, 4, 63, 27, 6, 7, 17, 44, 0)
s = 14: (0, 3, 23, 13, 4, 62, 60, 4, 7, 13, 37, 0)
s = 15: (0, 3, 19, 11, 4, 38, 38, 4, 8, 16, 60, 0)
s = 16: (0, 4, 25, 18, 4, 46, 25, 3, 7, 16, 85, 0)
s = 17: (0, 3, 18, 12, 4, 25, 43, 5, 9, 18, 64, 0)
s = 18: (0, 3, 30, 11, 4, 39, 39, 4, 5, 13, 48, 0)
s = 19: (0, 3, 21, 14, 5, 49, 56, 3, 6, 22, 51, 0)
s = 20: (0, 4, 25, 14, 4, 36, 40, 4, 6, 20, 66, 0)
s = 21: (0, 5, 23, 18, 6, 47, 42, 5, 6, 14, 48, 0)
s = 22: (0, 4, 18, 19, 3, 51, 31, 3, 4, 26, 59, 0)
s = 23: (0, 4, 29, 18, 4, 29, 59, 3, 4, 27, 39, 0)
s = 24: (0, 6, 15, 18, 2, 48, 58, 7, 5, 12, 36, 0)
s = 25: (0, 5, 31, 18, 5, 39, 35, 3, 6, 20, 78, 0)
s = 26: (0, 4, 16, 12, 4, 34, 32, 4, 9, 39, 52, 0)
s = 27: (0, 5, 21, 15, 3, 38, 46, 7, 8, 14, 57, 0)
s = 28: (0, 4, 19, 21, 6, 49, 50, 5, 7, 16, 36, 0)
s = 29: (0, 4, 25, 20, 4, 46, 31, 6, 9, 22, 53, 0)
s = 30: (0, 5, 21, 21, 3, 55, 28, 5, 5, 14, 43, 0)
s = 31: (0, 5, 33, 10, 3, 40, 34, 4, 13, 25, 78, 0)
s = 32: (0, 5, 24, 13, 3, 33, 58, 5, 5, 22, 52, 0)
s = 33: (0, 4, 15, 22, 3, 52, 35, 5, 6, 16, 38, 0)
s = 34: (0, 5, 15, 20, 2, 29, 44, 5, 6, 13, 65, 0)
s = 35: (0, 3, 13, 24, 4, 39, 54, 5, 6, 14, 45, 0)
s = 36: (0, 4, 15, 14, 3, 47, 42, 4, 8, 22, 40, 0)
s = 37: (0, 3, 27, 13, 3, 52, 50, 4, 5, 20, 43, 0)
s = 38: (0, 5, 29, 23, 3, 36, 51, 5, 9, 16, 35, 0)
s = 39: (0, 7, 29, 19, 4, 48, 48, 6, 9, 24, 46, 0)
s = 40: (0, 3, 17, 10, 5, 35, 46, 4, 8, 23, 46, 0)
s = 41: (0, 5, 21, 20, 2, 38, 27, 4, 10, 24, 34, 0)
s = 42: (0, 5, 27, 19, 3, 32, 55, 3, 6, 26, 64, 0)
s = 43: (0, 4, 32, 16, 4, 39, 38, 4, 5, 19, 38, 0)
s = 44: (0, 3, 27, 22, 3, 67, 48, 5, 6, 26, 57, 0)
s = 45: (0, 6, 15, 17, 4, 62, 55, 4, 8, 12, 52, 0)
s = 46: (0, 4, 14, 16, 4, 48, 27, 5, 10, 14, 59, 0)
s = 47: (0, 4, 24, 15, 2, 27, 33, 7, 6, 26, 41, 0)
s = 48: (0, 5, 17, 28, 3, 53, 32, 6, 8, 20, 30, 0)
s = 49: (0, 7, 17, 15, 3, 46, 53, 5, 5, 17, 63, 0)
s = 50: (0, 3, 32, 19, 3, 65, 44, 3, 5, 26, 34, 0)
s = 51: (0, 4, 17, 14, 4, 37, 31, 5, 6, 20, 57, 0)
s = 52: (0, 3, 45, 21, 3, 42, 33, 6, 10, 14, 65, 0)
s = 53: (0, 5, 14, 12, 2, 23, 45, 4, 8, 13, 44, 0)
s = 54: (0, 4, 26, 19, 5, 45, 39, 6, 6, 16, 60, 0)
s = 55: (0, 5, 18, 11, 3, 31, 48, 6, 7, 19, 67, 0)
s = 56: (0, 4, 16, 17, 4, 55, 45, 4, 8, 18, 37, 0)
s = 57: (0, 3, 20, 18, 3, 43, 48, 6, 4, 23, 43, 0)
s = 58: (0, 4, 27, 10, 4, 39, 42, 6, 8, 17, 40, 0)
s = 59: (0, 4, 19, 15, 4, 49, 44, 3, 8, 25, 57, 0)
s = 60: (0, 5, 27, 15, 4, 35, 44, 6, 7, 15, 48, 0)
s = 61: (0, 6, 18, 21, 4, 50, 24, 3, 4, 14, 53, 0)
s = 62: (0, 5, 20, 14, 3, 47, 43, 6, 6, 15, 43, 0)
s = 63: (0, 3, 22, 12, 5, 49, 61, 3, 6, 22, 46, 0)
s = 64: (0, 4, 20, 16, 3, 40, 51, 4, 9, 15, 62, 0)
s = 65: (0, 4, 21, 26, 3, 45, 29, 3, 9, 23, 35, 0)
s = 66: (0, 5, 34, 12, 4, 43, 44, 4, 8, 27, 60, 0)
s = 67: (0, 6, 22, 17, 3, 39, 38, 3, 9, 16, 66, 0)
s = 68: (0, 5, 24, 17, 5, 38, 40, 5, 6, 21, 40, 0)
s = 69: (0, 4, 24, 10, 5, 42, 31, 4, 9, 18, 28, 0)
s = 70: (0, 3, 21, 21, 4, 29, 35, 5, 4, 15, 43, 0)
s = 71: (0, 3, 28, 23, 3, 34, 24, 6, 8, 28, 46, 0)
s = 72: (0, 3, 34, 14, 3, 59, 23, 5, 7, 14, 56, 0)
s = 73: (0, 5, 25, 11, 5, 46, 31, 5, 9, 19, 43, 0)
s = 74: (0, 5, 25, 27, 3, 46, 25, 4, 9, 18, 47, 0)
s = 75: (0, 6, 37, 20, 5, 45, 33, 6, 7, 16, 33, 0)
s = 76: (0, 3, 22, 17, 4, 53, 66, 4, 6, 19, 58, 0)
s = 77: (0, 3, 21, 10, 3, 54, 32, 5, 5, 17, 36, 0)
s = 78: (0, 3, 42, 20, 4, 33, 37, 3, 5, 24, 48, 0)
s = 79: (0, 5, 22, 15, 5, 40, 48, 4, 6, 15, 49, 0)
s = 80: (0, 6, 24, 16, 4, 29, 39, 3, 5, 26, 62, 0)
s = 81: (0, 3, 19, 16, 4, 73, 57, 5, 5, 22, 62, 0)
s = 82: (0, 3, 20, 16, 2, 53, 42, 4, 4, 19, 36, 0)
s = 83: (0, 4, 18, 12, 4, 33, 25, 5, 9, 17, 49, 0)
s = 84: (0, 3, 26, 18, 4, 53, 43, 3, 4, 23, 59, 0)
s = 85: (0, 5, 17, 10, 3, 27, 34, 4, 7, 21, 82, 0)
s = 86: (0, 5, 30, 28, 3, 40, 45, 5, 8, 20, 67, 0)
s = 87: (0, 3, 22, 10, 3, 23, 29, 3, 4, 23, 40, 0)
s = 88: (0, 3, 19, 16, 3, 43, 31, 4, 5, 18, 36, 0)
s = 89: (0, 4, 22, 13, 3, 54, 26, 6, 4, 36, 28, 0)
s = 90: (0, 7, 26, 15, 2, 28, 48, 3, 4, 24, 52, 0)
s = 91: (0, 4, 32, 12, 3, 46, 42, 3, 7, 32, 49, 0)
s = 92: (0, 6, 15, 23, 3, 27, 24, 7, 5, 29, 61, 0)
s = 93: (0, 5, 26, 13, 4, 59, 40, 3, 6, 14, 40, 0)
s = 94: (0, 3, 26, 13, 2, 47, 41, 3, 7, 11, 57, 0)
s = 95: (0, 6, 18, 18, 4, 51, 61, 4, 5, 22, 41, 0)
s = 96: (0, 6, 32, 10, 3, 45, 43, 5, 11, 21, 57, 0)
s = 97: (0, 4, 33, 19, 3, 40, 49, 6, 6, 20, 32, 0)
s = 98: (0, 7, 15, 16, 3, 63, 57, 4, 6, 20, 32, 0)
s = 99: (0, 4, 18, 18, 4, 66, 32, 5, 5, 24, 55, 0)
s = 100: (0, 5, 32, 17, 5, 41, 30, 7, 8, 18, 44, 0)
s = 101: (0, 4, 33, 16, 3, 45, 30, 4, 4, 21, 28, 0)
s = 102: (0, 5, 31, 9, 5, 50, 24, 3, 5, 17, 58, 0)
s = 103: (0, 4, 22, 15, 4, 50, 58, 4, 4, 22, 55, 0)
s = 104: (0, 3, 33, 16, 4, 41, 38, 4, 8, 15, 56, 0)
s = 105: (0, 4, 14, 24, 3, 58, 34, 6, 6, 39, 31, 0)
s = 106: (0, 4, 25, 20, 2, 62, 56, 5, 7, 18, 38, 0)
s = 107: (0, 4, 20, 16, 2, 29, 39, 3, 8, 22, 59, 0)
s = 108: (0, 5, 16, 18, 3, 30, 42, 5, 7, 20, 49, 0)
s = 109: (0, 7, 16, 18, 4, 53, 26, 4, 7, 20, 36, 0)
s = 110: (0, 5, 13, 9, 5, 29, 40, 4, 5, 21, 80, 0)
s = 111: (0, 6, 18, 16, 6, 27, 51, 3, 6, 21, 52, 0)
s = 112: (0, 7, 28, 23, 3, 36, 44, 5, 4, 12, 56, 0)
s = 113: (0, 4, 32, 26, 5, 51, 34, 3, 5, 19, 50, 0)
s = 114: (0, 4, 24, 23, 3, 27, 68, 5, 7, 24, 40, 0)
s = 115: (0, 4, 18, 13, 3, 39, 39, 5, 5, 12, 78, 0)
s = 116: (0, 3, 18, 14, 3, 59, 28, 7, 6, 18, 32, 0)
s = 117: (0, 4, 28, 22, 4, 28, 65, 6, 7, 17, 67, 0)
s = 118: (0, 4, 17, 12, 3, 49, 43, 4, 8, 25, 46, 0)
s = 119: (0, 4, 23, 9, 3, 34, 54, 4, 6, 14, 70, 0)
s = 120: (0, 7, 18, 15, 4, 36, 22, 5, 8, 27, 50, 0)
s = 121: (0, 8, 26, 19, 3, 52, 34, 3, 6, 29, 46, 0)
s = 122: (0, 5, 18, 28, 4, 49, 31, 4, 7, 40, 76, 0)
s = 123: (0, 5, 30, 19, 2, 50, 33, 6, 8, 13, 48, 0)
s = 124: (0, 3, 25, 9, 3, 27, 68, 3, 9, 14, 29, 0)
s = 125: (0, 6, 16, 12, 3, 25, 28, 4, 5, 29, 51, 0)
s = 126: (0, 6, 32, 26, 4, 57, 47, 3, 6, 22, 65, 0)
s = 127: (0, 4, 28, 22, 4, 35, 39, 4, 6, 12, 42, 0)
s = 128: (0, 4, 19, 16, 5, 31, 66, 4, 6, 15, 29, 0)
s = 129: (0, 3, 29, 14, 3, 53, 35, 4, 5, 14, 39, 0)
s = 130: (0, 5, 16, 12, 3, 33, 35, 6, 6, 27, 71, 0)
s = 131: (0, 4, 35, 12, 3, 65, 65, 5, 5, 31, 49, 0)
s = 132: (0, 4, 22, 14, 5, 34, 46, 3, 10, 20, 85, 0)
s = 133: (0, 5, 20, 15, 3, 45, 40, 5, 5, 30, 31, 0)
s = 134: (0, 4, 16, 10, 4, 56, 56, 3, 4, 24, 48, 0)
s = 135: (0, 5, 29, 23, 3, 51, 42, 5, 6, 13, 46, 0)
s = 136: (0, 6, 22, 10, 5, 41, 27, 4, 5, 19, 40, 0)
s = 137: (0, 4, 16, 12, 3, 43, 60, 7, 9, 35, 54, 0)
s = 138: (0, 4, 29, 13, 4, 33, 29, 5, 7, 15, 39, 0)
s = 139: (0, 5, 15, 25, 3, 76, 37, 8, 6, 20, 46, 0)
s = 140: (0, 3, 14, 14, 3, 31, 45, 3, 7, 19, 45, 0)
s = 141: (0, 3, 15, 16, 3, 64, 48, 6, 5, 16, 45, 0)
s = 142: (0, 4, 25, 18, 4, 54, 35, 5, 5, 15, 46, 0)
s = 143: (0, 7, 31, 19, 2, 41, 62, 3, 7, 16, 57, 0)
s = 144: (0, 6, 14, 18, 3, 43, 52, 4, 6, 19, 45, 0)
s = 145: (0, 3, 28, 12, 3, 54, 47, 5, 8, 23, 49, 0)
s = 146: (0, 5, 21, 24, 5, 36, 28, 5, 7, 16, 27, 0)
s = 147: (0, 5, 24, 15, 4, 36, 39, 4, 4, 19, 49, 0)
s = 148: (0, 5, 19, 21, 3, 48, 28, 4, 4, 27, 36, 0)
s = 149: (0, 5, 25, 13, 3, 57, 24, 5, 9, 17, 89, 0)
s = 150: (0, 3, 27, 17, 4, 47, 46, 3, 4, 19, 63, 0)
s = 151: (0, 4, 15, 18, 3, 51, 39, 4, 5, 17, 39, 0)
s = 152: (0, 3, 21, 20, 5, 67, 45, 5, 8, 18, 70, 0)
s = 153: (0, 3, 17, 19, 5, 25, 28, 3, 6, 20, 60, 0)
s = 154: (0, 6, 19, 18, 3, 36, 48, 4, 5, 13, 34, 0)
s = 155: (0, 5, 23, 14, 3, 41, 29, 5, 5, 20, 29, 0)
s = 156: (0, 4, 23, 17, 2, 43, 28, 3, 5, 15, 53, 0)
s = 157: (0, 5, 30, 14, 4, 57, 32, 8, 5, 19, 40, 0)
s = 158: (0, 6, 28, 16, 4, 33, 38, 4, 9, 14, 65, 0)
s = 159: (0, 4, 14, 17, 4, 57, 35, 6, 6, 13, 40, 0)
s = 160: (0, 3, 32, 13, 3, 42, 27, 4, 5, 12, 33, 0)
s = 161: (0, 5, 27, 20, 3, 30, 59, 6, 4, 18, 27, 0)
s = 162: (0, 5, 30, 14, 3, 42, 57, 6, 4, 21, 40, 0)
s = 163: (0, 5, 40, 11, 5, 37, 48, 4, 6, 16, 37, 0)
s = 164: (0, 3, 32, 14, 4, 42, 51, 3, 11, 23, 49, 0)
s = 165: (0, 6, 21, 10, 4, 36, 39, 6, 5, 17, 66, 0)
s = 166: (0, 4, 20, 22, 4, 50, 31, 4, 5, 18, 43, 0)
s = 167: (0, 3, 20, 14, 3, 43, 24, 4, 5, 20, 34, 0)
s = 168: (0, 3, 31, 16, 4, 34, 32, 4, 5, 31, 66, 0)
s = 169: (0, 4, 24, 25, 3, 34, 52, 4, 5, 17, 59, 0)
s = 170: (0, 6, 36, 24, 3, 37, 30, 4, 5, 21, 55, 0)
s = 171: (0, 4, 17, 24, 3, 50, 31, 4, 5, 16, 63, 0)
s = 172: (0, 3, 19, 19, 3, 54, 42, 4, 6, 23, 56, 0)
s = 173: (0, 7, 28, 12, 3, 32, 51, 8, 8, 25, 59, 0)
s = 174: (0, 4, 15, 15, 4, 58, 41, 4, 4, 17, 46, 0)
s = 175: (0, 4, 38, 11, 4, 47, 40, 4, 8, 26, 62, 0)
s = 176: (0, 6, 18, 22, 3, 73, 32, 5, 7, 19, 60, 0)
s = 177: (0, 7, 34, 13, 3, 27, 24, 6, 6, 15, 37, 0)
s = 178: (0, 6, 16, 17, 2, 54, 35, 4, 7, 22, 43, 0)
s = 179: (0, 7, 24, 13, 5, 44, 33, 4, 6, 19, 58, 0)
s = 180: (0, 5, 17, 21, 4, 54, 44, 4, 9, 21, 50, 0)
s = 181: (0, 5, 18, 12, 3, 26, 22, 5, 6, 14, 40, 0)
s = 182: (0, 5, 34, 19, 4, 58, 23, 6, 5, 32, 40, 0)
s = 183: (0, 8, 17, 15, 4, 35, 43, 5, 6, 26, 46, 0)
s = 184: (0, 3, 18, 22, 3, 68, 38, 4, 5, 16, 32, 0)
s = 185: (0, 3, 21, 20, 4, 40, 59, 4, 5, 20, 68, 0)
s = 186: (0, 5, 36, 18, 4, 58, 49, 4, 5, 15, 57, 0)
s = 187: (0, 5, 36, 21, 2, 80, 24, 6, 6, 16, 43, 0)
s = 188: (0, 8, 23, 23, 3, 39, 30, 4, 5, 12, 76, 0)
s = 189: (0, 5, 23, 22, 2, 47, 51, 4, 9, 21, 48, 0)
s = 190: (0, 3, 28, 10, 3, 30, 52, 5, 6, 14, 34, 0)
s = 191: (0, 4, 26, 21, 5, 30, 28, 3, 8, 24, 59, 0)
s = 192: (0, 7, 32, 21, 2, 35, 64, 3, 7, 23, 34, 0)
s = 193: (0, 3, 22, 11, 3, 54, 60, 5, 5, 18, 52, 0)
s = 194: (0, 3, 26, 12, 4, 42, 50, 7, 8, 26, 50, 0)
s = 195: (0, 5, 18, 13, 2, 45, 31, 4, 6, 18, 32, 0)
s = 196: (0, 5, 25, 19, 5, 36, 62, 4, 5, 17, 38, 0)
s = 197: (0, 6, 27, 24, 3, 61, 41, 4, 7, 23, 40, 0)
s = 198: (0, 3, 19, 11, 3, 56, 50, 4, 4, 14, 45, 0)
s = 199: (0, 5, 36, 15, 3, 34, 57, 6, 6, 26, 50, 0)
s = 200: (0, 5, 16, 10, 3, 50, 54, 5, 11, 12, 53, 0)
------------------------------------------------------------------------
RESOURCE k = 2
s = 1: (0, 7, 55, 10, 4, 53, 17, 3, 5, 18, 28, 0)
s = 2: (0, 6, 25, 23, 7, 28, 15, 3, 8, 13, 20, 0)
s = 3: (0, 8, 24, 13, 6, 27, 24, 3, 5, 18, 20, 0)
s = 4: (0, 11, 25, 11, 11, 41, 28, 6, 6, 12, 23, 0)
s = 5: (0, 10, 37, 13, 7, 34, 33, 5, 9, 17, 40, 0)
s = 6: (0, 11, 31, 10, 6, 43, 37, 8, 7, 15, 41, 0)
s = 7: (0, 9, 22, 21, 4, 43, 18, 5, 10, 15, 31, 0)
s = 8: (0, 7, 41, 22, 8, 50, 22, 7, 11, 22, 26, 0)
s = 9: (0, 6, 21, 9, 5, 26, 28, 3, 7, 20, 33, 0)
s = 10: (0, 8, 39, 13, 5, 42, 30, 4, 6, 10, 17, 0)
s = 11: (0, 8, 41, 12, 4, 40, 27, 3, 11, 17, 26, 0)
s = 12: (0, 9, 32, 14, 8, 45, 20, 4, 5, 15, 34, 0)
s = 13: (0, 5, 24, 21, 8, 56, 16, 6, 8, 12, 25, 0)
s = 14: (0, 6, 30, 11, 8, 55, 36, 4, 8, 9, 21, 0)
s = 15: (0, 6, 25, 10, 8, 34, 23, 4, 9, 11, 34, 0)
s = 16: (0, 7, 33, 16, 7, 41, 15, 3, 8, 12, 49, 0)
s = 17: (0, 5, 23, 10, 7, 23, 26, 5, 10, 13, 37, 0)
s = 18: (0, 6, 40, 10, 8, 34, 24, 4, 6, 9, 28, 0)
s = 19: (0, 5, 28, 13, 9, 44, 34, 3, 7, 15, 29, 0)
s = 20: (0, 7, 34, 12, 8, 32, 24, 4, 7, 14, 38, 0)
s = 21: (0, 9, 30, 16, 11, 42, 25, 5, 7, 10, 28, 0)
s = 22: (0, 8, 24, 16, 5, 45, 19, 3, 5, 18, 34, 0)
s = 23: (0, 7, 39, 16, 7, 26, 36, 3, 5, 19, 22, 0)
s = 24: (0, 12, 20, 16, 4, 43, 35, 7, 6, 9, 21, 0)
s = 25: (0, 10, 41, 16, 10, 35, 21, 3, 7, 14, 45, 0)
s = 26: (0, 8, 21, 10, 7, 30, 19, 4, 10, 27, 30, 0)
s = 27: (0, 9, 28, 14, 5, 34, 28, 7, 9, 10, 33, 0)
s = 28: (0, 7, 25, 19, 11, 44, 30, 5, 8, 12, 21, 0)
s = 29: (0, 7, 33, 18, 8, 41, 19, 6, 11, 15, 30, 0)
s = 30: (0, 9, 28, 18, 6, 49, 17, 5, 6, 10, 25, 0)
s = 31: (0, 10, 44, 9, 5, 35, 21, 4, 15, 18, 45, 0)
s = 32: (0, 9, 32, 11, 5, 29, 35, 5, 6, 16, 30, 0)
s = 33: (0, 7, 20, 19, 6, 46, 21, 5, 7, 12, 22, 0)
s = 34: (0, 9, 20, 17, 4, 26, 27, 5, 7, 9, 37, 0)
s = 35: (0, 5, 17, 21, 8, 34, 32, 5, 6, 10, 26, 0)
s = 36: (0, 7, 20, 12, 5, 42, 25, 4, 10, 15, 23, 0)
s = 37: (0, 6, 35, 12, 6, 46, 30, 4, 6, 14, 25, 0)
s = 38: (0, 10, 39, 20, 6, 32, 31, 5, 11, 11, 20, 0)
s = 39: (0, 13, 39, 16, 7, 43, 29, 6, 10, 17, 27, 0)
s = 40: (0, 5, 23, 9, 10, 31, 28, 4, 10, 16, 27, 0)
s = 41: (0, 10, 28, 17, 4, 34, 16, 4, 12, 17, 19, 0)
s = 42: (0, 9, 36, 16, 5, 28, 33, 3, 7, 19, 37, 0)
s = 43: (0, 8, 43, 14, 7, 34, 23, 4, 6, 14, 22, 0)
s = 44: (0, 5, 35, 19, 5, 59, 29, 5, 7, 18, 33, 0)
s = 45: (0, 12, 20, 15, 8, 55, 33, 4, 10, 9, 30, 0)
s = 46: (0, 8, 19, 14, 7, 43, 17, 5, 11, 10, 34, 0)
s = 47: (0, 7, 32, 14, 4, 24, 20, 7, 7, 18, 24, 0)
s = 48: (0, 9, 23, 25, 6, 47, 20, 6, 9, 14, 17, 0)
s = 49: (0, 14, 23, 13, 5, 41, 32, 5, 5, 12, 36, 0)
s = 50: (0, 5, 42, 17, 6, 58, 27, 3, 5, 19, 20, 0)
s = 51: (0, 7, 23, 12, 7, 33, 19, 5, 6, 14, 33, 0)
s = 52: (0, 6, 59, 18, 6, 37, 20, 6, 12, 10, 37, 0)
s = 53: (0, 9, 19, 11, 4, 21, 27, 4, 9, 9, 25, 0)
s = 54: (0, 8, 34, 17, 9, 40, 24, 6, 7, 11, 34, 0)
s = 55: (0, 9, 23, 10, 5, 28, 29, 6, 8, 13, 39, 0)
s = 56: (0, 8, 22, 15, 8, 49, 27, 4, 9, 13, 21, 0)
s = 57: (0, 5, 26, 16, 6, 39, 29, 6, 5, 17, 25, 0)
s = 58: (0, 7, 36, 9, 8, 35, 25, 6, 9, 12, 23, 0)
s = 59: (0, 7, 26, 13, 7, 44, 27, 3, 9, 18, 33, 0)
s = 60: (0, 9, 36, 13, 7, 32, 27, 6, 8, 10, 28, 0)
s = 61: (0, 12, 24, 19, 7, 45, 15, 3, 5, 10, 30, 0)
s = 62: (0, 10, 27, 12, 6, 41, 26, 6, 7, 11, 25, 0)
s = 63: (0, 6, 29, 11, 10, 43, 37, 3, 7, 16, 27, 0)
s = 64: (0, 7, 26, 14, 6, 35, 31, 4, 10, 11, 36, 0)
s = 65: (0, 8, 27, 23, 5, 40, 18, 3, 11, 16, 20, 0)
s = 66: (0, 10, 46, 11, 7, 38, 27, 4, 9, 19, 34, 0)
s = 67: (0, 11, 29, 15, 5, 35, 23, 3, 10, 11, 38, 0)
s = 68: (0, 9, 32, 15, 10, 34, 24, 5, 7, 15, 23, 0)
s = 69: (0, 7, 32, 9, 9, 37, 19, 4, 10, 13, 16, 0)
s = 70: (0, 5, 28, 18, 7, 26, 21, 5, 5, 10, 25, 0)
s = 71: (0, 6, 38, 20, 5, 30, 15, 6, 9, 20, 27, 0)
s = 72: (0, 5, 45, 12, 5, 53, 14, 5, 8, 10, 32, 0)
s = 73: (0, 10, 33, 10, 10, 41, 19, 5, 10, 13, 25, 0)
s = 74: (0, 10, 33, 24, 6, 41, 15, 4, 10, 13, 27, 0)
s = 75: (0, 11, 49, 18, 9, 40, 20, 6, 9, 11, 19, 0)
s = 76: (0, 6, 30, 15, 7, 47, 40, 4, 7, 14, 33, 0)
s = 77: (0, 5, 28, 9, 6, 48, 19, 5, 5, 12, 21, 0)
s = 78: (0, 6, 56, 18, 7, 29, 22, 3, 6, 17, 28, 0)
s = 79: (0, 10, 29, 13, 9, 35, 29, 4, 7, 11, 28, 0)
s = 80: (0, 11, 32, 14, 7, 26, 24, 3, 5, 18, 35, 0)
s = 81: (0, 6, 25, 14, 7, 65, 35, 5, 5, 15, 36, 0)
s = 82: (0, 5, 26, 14, 4, 47, 26, 4, 5, 14, 21, 0)
s = 83: (0, 8, 24, 11, 8, 29, 15, 5, 10, 12, 28, 0)
s = 84: (0, 6, 34, 16, 8, 47, 26, 3, 5, 17, 34, 0)
s = 85: (0, 10, 23, 9, 5, 24, 21, 4, 8, 15, 47, 0)
s = 86: (0, 10, 39, 25, 5, 35, 27, 5, 9, 14, 38, 0)
s = 87: (0, 6, 29, 9, 6, 21, 17, 3, 5, 16, 23, 0)
s = 88: (0, 5, 25, 14, 6, 38, 19, 4, 5, 13, 21, 0)
s = 89: (0, 8, 30, 12, 6, 48, 16, 6, 5, 25, 16, 0)
s = 90: (0, 13, 34, 13, 4, 25, 29, 3, 4, 17, 30, 0)
s = 91: (0, 8, 42, 11, 6, 41, 26, 3, 8, 22, 28, 0)
s = 92: (0, 12, 20, 20, 6, 24, 15, 7, 6, 21, 35, 0)
s = 93: (0, 9, 35, 11, 7, 52, 24, 3, 7, 10, 23, 0)
s = 94: (0, 6, 35, 11, 4, 42, 25, 3, 8, 8, 33, 0)
s = 95: (0, 12, 23, 16, 7, 45, 37, 4, 6, 16, 24, 0)
s = 96: (0, 11, 43, 9, 5, 40, 26, 5, 12, 15, 33, 0)
s = 97: (0, 8, 43, 17, 5, 35, 29, 6, 7, 14, 19, 0)
s = 98: (0, 13, 19, 14, 5, 56, 34, 4, 7, 14, 18, 0)
s = 99: (0, 8, 24, 16, 8, 59, 20, 5, 5, 17, 32, 0)
s = 100: (0, 9, 42, 15, 10, 36, 18, 7, 10, 13, 25, 0)
s = 101: (0, 8, 43, 14, 6, 40, 18, 4, 5, 15, 16, 0)
s = 102: (0, 9, 41, 8, 9, 45, 15, 3, 5, 12, 33, 0)
s = 103: (0, 8, 30, 13, 7, 44, 35, 4, 5, 16, 32, 0)
s = 104: (0, 6, 44, 14, 8, 36, 23, 4, 10, 11, 32, 0)
s = 105: (0, 7, 18, 21, 6, 52, 21, 6, 7, 27, 18, 0)
s = 106: (0, 7, 33, 18, 4, 55, 34, 5, 8, 13, 22, 0)
s = 107: (0, 7, 27, 14, 4, 26, 24, 3, 9, 16, 34, 0)
s = 108: (0, 9, 21, 16, 6, 27, 25, 5, 9, 14, 28, 0)
s = 109: (0, 13, 21, 16, 8, 47, 16, 4, 8, 14, 21, 0)
s = 110: (0, 9, 17, 8, 9, 26, 24, 4, 5, 15, 46, 0)
s = 111: (0, 12, 24, 14, 11, 24, 31, 3, 7, 15, 30, 0)
s = 112: (0, 13, 37, 20, 6, 32, 27, 5, 5, 8, 32, 0)
s = 113: (0, 7, 43, 23, 9, 45, 21, 3, 6, 14, 29, 0)
s = 114: (0, 8, 32, 20, 6, 24, 41, 5, 9, 17, 23, 0)
s = 115: (0, 7, 23, 11, 5, 35, 24, 5, 6, 8, 45, 0)
s = 116: (0, 5, 23, 12, 5, 53, 17, 7, 7, 12, 18, 0)
s = 117: (0, 7, 37, 19, 7, 25, 39, 6, 8, 12, 39, 0)
s = 118: (0, 8, 23, 11, 6, 44, 26, 4, 10, 18, 26, 0)
s = 119: (0, 8, 31, 8, 6, 31, 33, 4, 7, 10, 40, 0)
s = 120: (0, 13, 23, 13, 7, 32, 13, 5, 10, 19, 29, 0)
s = 121: (0, 15, 34, 17, 6, 46, 20, 3, 7, 21, 27, 0)
s = 122: (0, 10, 24, 24, 7, 43, 19, 4, 8, 28, 43, 0)
s = 123: (0, 9, 39, 17, 4, 45, 20, 6, 9, 9, 28, 0)
s = 124: (0, 6, 33, 8, 5, 24, 41, 3, 10, 10, 17, 0)
s = 125: (0, 12, 21, 10, 6, 22, 17, 4, 6, 21, 29, 0)
s = 126: (0, 11, 42, 23, 8, 51, 28, 3, 7, 15, 37, 0)
s = 127: (0, 7, 37, 19, 7, 31, 24, 4, 7, 9, 24, 0)
s = 128: (0, 7, 25, 14, 9, 28, 40, 4, 7, 11, 17, 0)
s = 129: (0, 6, 38, 13, 6, 47, 21, 4, 6, 10, 22, 0)
s = 130: (0, 9, 21, 11, 6, 30, 21, 6, 7, 19, 41, 0)
s = 131: (0, 8, 47, 11, 6, 58, 39, 5, 5, 22, 28, 0)
s = 132: (0, 8, 29, 12, 10, 30, 28, 3, 12, 14, 49, 0)
s = 133: (0, 10, 27, 14, 6, 40, 24, 5, 5, 21, 18, 0)
s = 134: (0, 7, 21, 9, 7, 49, 34, 3, 5, 17, 28, 0)
s = 135: (0, 9, 39, 20, 6, 45, 25, 5, 6, 10, 26, 0)
s = 136: (0, 11, 29, 9, 10, 36, 16, 4, 5, 14, 23, 0)
s = 137: (0, 7, 21, 11, 5, 39, 36, 7, 10, 24, 31, 0)
s = 138: (0, 7, 39, 11, 8, 29, 18, 5, 8, 11, 23, 0)
s = 139: (0, 10, 19, 22, 5, 67, 22, 8, 7, 14, 26, 0)
s = 140: (0, 6, 18, 12, 5, 28, 27, 3, 8, 13, 26, 0)
s = 141: (0, 5, 20, 14, 6, 57, 29, 6, 5, 11, 26, 0)
s = 142: (0, 8, 33, 16, 8, 48, 21, 5, 6, 11, 26, 0)
s = 143: (0, 13, 41, 17, 4, 37, 38, 3, 9, 11, 33, 0)
s = 144: (0, 11, 19, 16, 6, 38, 31, 4, 7, 13, 26, 0)
s = 145: (0, 5, 37, 11, 6, 48, 28, 5, 9, 16, 28, 0)
s = 146: (0, 9, 27, 21, 9, 32, 17, 5, 8, 11, 16, 0)
s = 147: (0, 9, 31, 13, 8, 32, 24, 4, 4, 13, 28, 0)
s = 148: (0, 9, 26, 18, 5, 43, 17, 4, 4, 19, 21, 0)
s = 149: (0, 9, 33, 11, 6, 51, 14, 5, 11, 12, 51, 0)
s = 150: (0, 6, 36, 15, 7, 42, 28, 3, 5, 13, 36, 0)
s = 151: (0, 8, 20, 16, 6, 46, 24, 4, 6, 12, 22, 0)
s = 152: (0, 5, 28, 18, 9, 60, 27, 5, 10, 13, 40, 0)
s = 153: (0, 6, 23, 16, 9, 23, 17, 3, 7, 14, 35, 0)
s = 154: (0, 11, 26, 16, 6, 32, 29, 4, 6, 9, 20, 0)
s = 155: (0, 9, 30, 12, 6, 36, 17, 5, 6, 14, 17, 0)
s = 156: (0, 7, 31, 15, 4, 39, 17, 3, 6, 11, 31, 0)
s = 157: (0, 10, 39, 12, 8, 51, 20, 8, 5, 14, 23, 0)
s = 158: (0, 12, 37, 14, 7, 29, 23, 4, 10, 10, 37, 0)
s = 159: (0, 8, 19, 15, 8, 51, 21, 6, 7, 9, 23, 0)
s = 160: (0, 6, 42, 11, 6, 37, 16, 4, 5, 8, 19, 0)
s = 161: (0, 10, 36, 17, 6, 27, 35, 6, 4, 13, 16, 0)
s = 162: (0, 9, 39, 12, 5, 37, 35, 6, 5, 15, 23, 0)
s = 163: (0, 9, 53, 10, 9, 33, 29, 4, 6, 11, 21, 0)
s = 164: (0, 6, 43, 12, 8, 38, 31, 3, 13, 16, 28, 0)
s = 165: (0, 11, 27, 9, 7, 32, 23, 6, 6, 12, 38, 0)
s = 166: (0, 7, 26, 19, 7, 44, 19, 4, 6, 13, 25, 0)
s = 167: (0, 6, 26, 12, 5, 38, 15, 4, 6, 14, 20, 0)
s = 168: (0, 6, 41, 14, 7, 30, 19, 4, 6, 22, 38, 0)
s = 169: (0, 8, 32, 22, 6, 30, 31, 4, 6, 12, 34, 0)
s = 170: (0, 11, 48, 21, 5, 33, 18, 4, 6, 15, 32, 0)
s = 171: (0, 8, 23, 21, 6, 44, 19, 4, 6, 12, 36, 0)
s = 172: (0, 5, 26, 16, 6, 48, 25, 4, 7, 16, 32, 0)
s = 173: (0, 13, 37, 10, 5, 28, 31, 8, 9, 17, 34, 0)
s = 174: (0, 7, 20, 13, 7, 51, 25, 4, 5, 12, 26, 0)
s = 175: (0, 8, 50, 10, 7, 42, 24, 4, 9, 18, 36, 0)
s = 176: (0, 12, 24, 19, 6, 65, 19, 5, 8, 13, 34, 0)
s = 177: (0, 13, 46, 11, 5, 24, 15, 6, 7, 11, 21, 0)
s = 178: (0, 11, 21, 15, 4, 48, 21, 4, 8, 15, 25, 0)
s = 179: (0, 13, 32, 12, 10, 40, 20, 4, 7, 14, 33, 0)
s = 180: (0, 9, 22, 18, 8, 48, 27, 4, 11, 15, 29, 0)
s = 181: (0, 10, 23, 11, 6, 23, 13, 5, 6, 10, 23, 0)
s = 182: (0, 9, 45, 17, 7, 51, 14, 6, 5, 23, 23, 0)
s = 183: (0, 15, 22, 13, 8, 31, 26, 5, 7, 18, 27, 0)
s = 184: (0, 5, 24, 19, 6, 60, 23, 4, 5, 11, 19, 0)
s = 185: (0, 5, 28, 18, 7, 36, 36, 4, 5, 14, 39, 0)
s = 186: (0, 10, 47, 16, 8, 52, 29, 4, 6, 10, 33, 0)
s = 187: (0, 10, 48, 18, 4, 71, 14, 6, 7, 11, 25, 0)
s = 188: (0, 15, 30, 21, 6, 34, 18, 4, 5, 9, 44, 0)
s = 189: (0, 10, 30, 19, 4, 42, 31, 4, 10, 15, 28, 0)
s = 190: (0, 5, 38, 9, 6, 27, 32, 5, 7, 10, 20, 0)
s = 191: (0, 8, 34, 19, 9, 27, 17, 3, 9, 17, 34, 0)
s = 192: (0, 13, 42, 19, 4, 31, 38, 3, 8, 16, 20, 0)
s = 193: (0, 6, 29, 10, 5, 48, 36, 5, 6, 13, 30, 0)
s = 194: (0, 6, 34, 10, 7, 37, 30, 7, 9, 18, 29, 0)
s = 195: (0, 10, 23, 11, 4, 40, 19, 4, 7, 13, 19, 0)
s = 196: (0, 9, 33, 17, 9, 32, 37, 4, 6, 12, 22, 0)
s = 197: (0, 11, 35, 21, 6, 54, 25, 4, 8, 16, 23, 0)
s = 198: (0, 5, 25, 9, 6, 50, 30, 4, 4, 10, 26, 0)
s = 199: (0, 10, 48, 13, 5, 30, 34, 6, 7, 18, 29, 0)
s = 200: (0, 10, 21, 9, 5, 45, 32, 5, 12, 9, 30, 0)
************************************************************************
ES/LS-VALUES:
jobnr.   ES(i)    LS(i)
------------------------------------------------------------------------
  0        0        0
  1        0       57
  2        0       65
  3        0       50
  4        4       61
  5        3       54
  6        3       65
  7        4       61
  8        7       73
  9       11       72
 10       11       63
 11       23       76
************************************************************************
BIG-M-VALUES:
M1 = 49, M2 = 151
************************************************************************
